/*********************************************
    * Lab01 - simple
    * Author: Coso
    * Creation Date: Mar, 2019
    *********************************************/
instance_name = "medium_instance_21_simple";

d = 5;
r = 15;

SCj = [163 188 147 152 174];
Dk = [58 42 85 100 16 68 76 82 75 70 53 11 36 11 20];

Cjk = [[62 49 34 71 41 72 33 78 62 68 74 37 31 85 78]
 [57 68 32 48 57 85 82 68 37 69 73 35 53 60 82]
 [61 34 53 43 40 33 31 44 58 52 38 56 45 64 70]
 [45 67 36 85 56 51 34 63 84 30 37 74 67 75 63]
 [30 76 45 84 69 50 52 61 44 80 48 61 84 32 47]];
